NAME          BLANK   
ROWS
 N  OBJROW
 L  R0000000
COLUMNS
    C0000000  OBJROW     -392.         R0000000  908.        
    C0000001  OBJROW     -865.         R0000000  607.        
    C0000002  OBJROW     -914.         R0000000  810.        
    C0000003  OBJROW     -169.         R0000000  960.        
    C0000004  OBJROW     -184.         R0000000  59.         
    C0000005  OBJROW     -435.         R0000000  446.        
    C0000006  OBJROW     -638.         R0000000  940.        
    C0000007  OBJROW     -588.         R0000000  302.        
    C0000008  OBJROW     -366.         R0000000  581.        
    C0000009  OBJROW     -940.         R0000000  668.        
    C0000010  OBJROW     -591.         R0000000  454.        
    C0000011  OBJROW     -154.         R0000000  485.        
    C0000012  OBJROW     -520.         R0000000  70.         
    C0000013  OBJROW     -474.         R0000000  701.        
    C0000014  OBJROW     -776.         R0000000  62.         
    C0000015  OBJROW     -386.         R0000000  253.        
    C0000016  OBJROW     -417.         R0000000  78.         
    C0000017  OBJROW     -832.         R0000000  997.        
    C0000018  OBJROW     -226.         R0000000  110.        
    C0000019  OBJROW     -16.          R0000000  667.        
    C0000020  OBJROW     -755.         R0000000  487.        
    C0000021  OBJROW     -8.           R0000000  915.        
    C0000022  OBJROW     -49.          R0000000  311.        
    C0000023  OBJROW     -209.         R0000000  132.        
    C0000024  OBJROW     -497.         R0000000  957.        
    C0000025  OBJROW     -185.         R0000000  45.         
    C0000026  OBJROW     -450.         R0000000  734.        
    C0000027  OBJROW     -705.         R0000000  493.        
    C0000028  OBJROW     -672.         R0000000  140.        
    C0000029  OBJROW     -74.          R0000000  470.        
RHS
    RHS       R0000000  7421.       
BOUNDS
 BV BOUND     C0000000  1.          
 BV BOUND     C0000001  1.          
 BV BOUND     C0000002  1.          
 BV BOUND     C0000003  1.          
 BV BOUND     C0000004  1.          
 BV BOUND     C0000005  1.          
 BV BOUND     C0000006  1.          
 BV BOUND     C0000007  1.          
 BV BOUND     C0000008  1.          
 BV BOUND     C0000009  1.          
 BV BOUND     C0000010  1.          
 BV BOUND     C0000011  1.          
 BV BOUND     C0000012  1.          
 BV BOUND     C0000013  1.          
 BV BOUND     C0000014  1.          
 BV BOUND     C0000015  1.          
 BV BOUND     C0000016  1.          
 BV BOUND     C0000017  1.          
 BV BOUND     C0000018  1.          
 BV BOUND     C0000019  1.          
 BV BOUND     C0000020  1.          
 BV BOUND     C0000021  1.          
 BV BOUND     C0000022  1.          
 BV BOUND     C0000023  1.          
 BV BOUND     C0000024  1.          
 BV BOUND     C0000025  1.          
 BV BOUND     C0000026  1.          
 BV BOUND     C0000027  1.          
 BV BOUND     C0000028  1.          
 BV BOUND     C0000029  1.          
ENDATA
